N = 4;
Capacity = 20;
nbVehicles = 4;
maxVisitsPerCustomer = 2;
Demand = [37, 14, 11, 5];
Distance = [|
  0, 50, 30, 23, 53
| 50, 0, 47, 27, 101
| 30, 47, 0, 32, 77
| 23, 27, 32, 0, 75
| 53, 101, 77, 75, 0
|];
